D = 5;
T = 10;
N1 = 3;
N2 = 3;
N3 = 4;
MaxDT = 3;
MaxDL = 2;
MinDT = 3;

A = 1;
afines = [|false,false,true,false,true,false,false,false,true,false
          |false,false,true,true,true,true,true,false,false,false
          |true,true,false,false,false,false,false,true,true,true
          |false,true,false,false,true,false,true,false,true,false
          |true,true,false,true,false,false,false,true,true,false
          |false,true,false,false,false,false,true,true,false,false
          |false,true,false,true,false,true,false,false,true,true
          |false,false,true,false,true,true,false,false,false,false
          |true,false,true,true,true,false,true,false,false,true
          |false,false,true,false,false,false,true,false,true,false|];

R = {1,4,7,10};
TrabRot = [true, false, false, false, true, false, false, false, false, false];
TrabDob = [true, false, false, false, true, false, false, false, false, false];

DiasInd = [|true, false, false, false, true
           |true, false, false, false, true
           |true, false, false, false, true
           |true, false, false, false, true
           |true, false, false, false, true
           |true, false, false, false, true
           |true, false, false, false, true
           |true, false, false, false, true
           |true, false, false, false, true
           |true, false, false, false, true|];

TurnosInd = [|true, false, false
           |true, false, false
           |true, false, false
           |true, false, false
           |true, false, false
           |true, false, false
           |true, false, false
           |true, false, false
           |true, false, false
           |true, false, false|];